Medium-instances_NetworkFacilityLocation/2023-03-27_20hr-25min-09sec/Nodes20_Arcs25_LocNodes15/Formulation-2Instance-1.lp
\ Model LocPrice
\ LP format - for model browsing. Use MPS format to capture full model detail.
Maximize
  - 170 x[1] - 189 x[2] - 165 x[3] - 161 x[4] - 189 x[5] - 193 x[7]
   - 153 x[8] - 152 x[10] - 183 x[12] - 166 x[13] - 178 x[14] - 157 x[15]
   - 193 x[16] - 172 x[17] - 194 x[19] - 3.461284417987495 Q[1]
   - 3.104042602128819 Q[2] - 3.809103679643056 Q[3]
   - 3.397026089018511 Q[4] - 3.181506091238244 Q[5]
   - 4.160664771973702 Q[7] - 3.597392265637845 Q[8]
   - 4.343989755912719 Q[10] - 3.399030887936426 Q[12]
   - 4.884226221012995 Q[13] - 3.730220336489657 Q[14]
   - 3.210990559140459 Q[15] - 4.258216303079418 Q[16]
   - 4.854309106135735 Q[17] - 3.880754309431568 Q[19]
   - 0.0441189148961079 f[2,1] - 2.590920270736727 f[3,2]
   - 2.943585120199033 f[4,2] - 2.871630538832891 f[5,3]
   - 0.4462920366974937 f[6,2] - 2.917886441468865 f[7,2]
   - 2.669806667161562 f[8,1] - 2.467121482629211 f[9,1]
   - 1.439963771423497 f[10,1] - 0.6971187589179115 f[11,2]
   - 2.405641736154924 f[12,9] - 2.770590479350409 f[13,8]
   - 0.7983908168768777 f[14,12] - 1.616803222866561 f[15,8]
   - 1.328258486923594 f[16,10] - 2.793051947943465 f[17,16]
   - 0.1215321335653039 f[18,13] - 2.196018586969682 f[19,12]
   - 1.84311974084699 f[20,11] - 1.957843729009915 f[3,8]
   - 0.3804513067837433 f[10,6] - 1.142311524932668 f[14,1]
   - 2.327073564305485 f[20,9] - 2.589360612567953 f[1,10]
   - 0.9478306361031006 f[13,10] + 1459 D[4] + 1471 D[6] + 1410 D[8]
   + 1452 D[9] + 1461 D[11] + 1312 D[15] + 1412 D[16] + 1390 D[17]
   + 1357 D[19] + 1390 D[20] - 1.028365365113521 S[5]
   - 1.71921977282674 S[6] - 1.015991729523572 S[7]
   - 1.757951002356428 S[8] - 1.512758723262078 S[9]
   - 1.929104220797006 S[11] - 1.066082496724075 S[14]
   - 1.841317279612383 S[17] - 1.066690008767101 S[18]
   - 1.344309978804125 S[20] + [ - 3.818361974762949 f[2,1] ^2
   - 1.999583254750588 f[3,2] ^2 - 1.700914499396302 f[4,2] ^2
   - 2.480853808061511 f[5,3] ^2 - 3.980386020941296 f[6,2] ^2
   - 3.795774699751061 f[7,2] ^2 - 1.840180557236384 f[8,1] ^2
   - 3.030915381233166 f[9,1] ^2 - 1.989690781950476 f[10,1] ^2
   - 2.117248640787082 f[11,2] ^2 - 3.14314280285523 f[12,9] ^2
   - 1.658623397422683 f[13,8] ^2 - 2.937934287154917 f[14,12] ^2
   - 2.844571511958999 f[15,8] ^2 - 3.728238746453513 f[16,10] ^2
   - 0.4597305331236208 f[17,16] ^2 - 2.916060468305238 f[18,13] ^2
   - 3.70969571449824 f[19,12] ^2 - 3.871704759698586 f[20,11] ^2
   - 0.3145201486625595 f[3,8] ^2 - 3.775205707768363 f[10,6] ^2
   - 0.2378566064013539 f[14,1] ^2 - 3.905849287744178 f[20,9] ^2
   - 1.079347142003201 f[1,10] ^2 - 3.979669392643671 f[13,10] ^2
   - 7.636241941941821 D[4] ^2 - 7.253012924839507 D[6] ^2
   - 7.918155285394884 D[8] ^2 - 6.738808822183362 D[9] ^2
   - 7.105223021042574 D[11] ^2 - 7.187848403226337 D[15] ^2
   - 7.69658241655012 D[16] ^2 - 6.290947076373063 D[17] ^2
   - 6.813020673496253 D[19] ^2 - 7.819917923324594 D[20] ^2
   - 0.8605974638956666 S[5] ^2 - 1.93212416156814 S[6] ^2
   - 1.124463684456914 S[7] ^2 - 0.5177291863418645 S[8] ^2
   - 0.4833514281886899 S[9] ^2 - 1.77623664131836 S[11] ^2
   - 0.4517388568346488 S[14] ^2 - 0.249109411670567 S[17] ^2
   - 0.5766615140151552 S[18] ^2 - 1.172246129625466 S[20] ^2 ] / 2 
Subject To
 R0: Q[1] + Q[2] + Q[3] + Q[4] + Q[5] + Q[7] + Q[8] + Q[10] + Q[12] + Q[13]
   + Q[14] + Q[15] + Q[16] + Q[17] + Q[19] <= 1312
 R1: - 159 x[1] + Q[1] <= 0
 R2: - 150 x[2] + Q[2] <= 0
 R3: - 133 x[3] + Q[3] <= 0
 R4: - 176 x[4] + Q[4] <= 0
 R5: - 139 x[5] + Q[5] <= 0
 R6: - 132 x[7] + Q[7] <= 0
 R7: - 189 x[8] + Q[8] <= 0
 R8: - 126 x[10] + Q[10] <= 0
 R9: - 122 x[12] + Q[12] <= 0
 R10: - 171 x[13] + Q[13] <= 0
 R11: - 162 x[14] + Q[14] <= 0
 R12: - 104 x[15] + Q[15] <= 0
 R13: - 108 x[16] + Q[16] <= 0
 R14: - 137 x[17] + Q[17] <= 0
 R15: - 183 x[19] + Q[19] <= 0
 node[1]: - Q[1] - f[2,1] - f[8,1] - f[9,1] - f[10,1] - f[14,1] + f[1,10]
   = 0
 node[2]: - Q[2] + f[2,1] - f[3,2] - f[4,2] - f[6,2] - f[7,2] - f[11,2]
   = 0
 node[3]: - Q[3] + f[3,2] - f[5,3] + f[3,8] = 0
 node[10]: - Q[10] + f[10,1] - f[16,10] + f[10,6] - f[1,10] - f[13,10] = 0
 node[12]: - Q[12] + f[12,9] - f[14,12] - f[19,12] = 0
 node[13]: - Q[13] + f[13,8] - f[18,13] + f[13,10] = 0
 node[5]: - Q[5] + f[5,3] - S[5] = 0
 node[14]: - Q[14] + f[14,12] + f[14,1] - S[14] = 0
 node[7]: - Q[7] + f[7,2] - S[7] = 0
 node[16]: - Q[16] + f[16,10] - f[17,16] + D[16] = 0
 node[19]: - Q[19] + f[19,12] + D[19] = 0
 node[4]: - Q[4] + f[4,2] + D[4] = 0
 node[15]: - Q[15] + f[15,8] + D[15] = 0
 node[8]: - Q[8] + f[8,1] - f[13,8] - f[15,8] - f[3,8] + D[8] - S[8] = 0
 node[17]: - Q[17] + f[17,16] + D[17] - S[17] = 0
 node[18]: f[18,13] - S[18] = 0
 node[9]: f[9,1] - f[12,9] - f[20,9] + D[9] - S[9] = 0
 node[11]: f[11,2] - f[20,11] + D[11] - S[11] = 0
 node[20]: f[20,11] + f[20,9] + D[20] - S[20] = 0
 node[6]: f[6,2] - f[10,6] + D[6] - S[6] = 0
 Cost_Flow[2,1]: - pi[1] + pi[2] + 1.909180987381474 f[2,1] - mu_f[2,1]
   = -0.0441189148961079
 Cost_Flow[3,2]: - pi[2] + pi[3] + 0.999791627375294 f[3,2] - mu_f[3,2]
   = -2.590920270736727
 Cost_Flow[4,2]: - pi[2] + pi[4] + 0.8504572496981511 f[4,2] - mu_f[4,2]
   = -2.943585120199033
 Cost_Flow[5,3]: - pi[3] + pi[5] + 1.240426904030756 f[5,3] - mu_f[5,3]
   = -2.871630538832891
 Cost_Flow[6,2]: - pi[2] + pi[6] + 1.990193010470648 f[6,2] - mu_f[6,2]
   = -0.4462920366974937
 Cost_Flow[7,2]: - pi[2] + pi[7] + 1.897887349875531 f[7,2] - mu_f[7,2]
   = -2.917886441468865
 Cost_Flow[8,1]: - pi[1] + pi[8] + 0.9200902786181921 f[8,1] - mu_f[8,1]
   = -2.669806667161562
 Cost_Flow[9,1]: - pi[1] + pi[9] + 1.515457690616583 f[9,1] - mu_f[9,1]
   = -2.467121482629211
 Cost_Flow[10,1]: - pi[1] + pi[10] + 0.9948453909752379 f[10,1]
   - mu_f[10,1] = -1.439963771423497
 Cost_Flow[11,2]: - pi[2] + pi[11] + 1.058624320393541 f[11,2] - mu_f[11,2]
   = -0.6971187589179115
 Cost_Flow[12,9]: - pi[9] + pi[12] + 1.571571401427615 f[12,9] - mu_f[12,9]
   = -2.405641736154924
 Cost_Flow[13,8]: - pi[8] + pi[13] + 0.8293116987113416 f[13,8]
   - mu_f[13,8] = -2.770590479350409
 Cost_Flow[14,12]: - pi[12] + pi[14] + 1.468967143577459 f[14,12]
   - mu_f[14,12] = -0.7983908168768777
 Cost_Flow[15,8]: - pi[8] + pi[15] + 1.4222857559795 f[15,8] - mu_f[15,8]
   = -1.616803222866561
 Cost_Flow[16,10]: - pi[10] + pi[16] + 1.864119373226756 f[16,10]
   - mu_f[16,10] = -1.328258486923594
 Cost_Flow[17,16]: - pi[16] + pi[17] + 0.2298652665618104 f[17,16]
   - mu_f[17,16] = -2.793051947943465
 Cost_Flow[18,13]: - pi[13] + pi[18] + 1.458030234152619 f[18,13]
   - mu_f[18,13] = -0.1215321335653039
 Cost_Flow[19,12]: - pi[12] + pi[19] + 1.85484785724912 f[19,12]
   - mu_f[19,12] = -2.196018586969682
 Cost_Flow[20,11]: - pi[11] + pi[20] + 1.935852379849293 f[20,11]
   - mu_f[20,11] = -1.84311974084699
 Cost_Flow[3,8]: pi[3] - pi[8] + 0.1572600743312798 f[3,8] - mu_f[3,8]
   = -1.957843729009915
 Cost_Flow[10,6]: - pi[6] + pi[10] + 1.887602853884182 f[10,6] - mu_f[10,6]
   = -0.3804513067837433
 Cost_Flow[14,1]: - pi[1] + pi[14] + 0.1189283032006769 f[14,1]
   - mu_f[14,1] = -1.142311524932668
 Cost_Flow[20,9]: - pi[9] + pi[20] + 1.952924643872089 f[20,9] - mu_f[20,9]
   = -2.327073564305485
 Cost_Flow[1,10]: pi[1] - pi[10] + 0.5396735710016003 f[1,10] - mu_f[1,10]
   = -2.589360612567953
 Cost_Flow[13,10]: - pi[10] + pi[13] + 1.989834696321836 f[13,10]
   - mu_f[13,10] = -0.9478306361031006
 Cost_Demand[4]: pi[4] + 3.81812097097091 D[4] - mu_D[4] = 1459
 Cost_Demand[6]: pi[6] + 3.626506462419754 D[6] - mu_D[6] = 1471
 Cost_Demand[8]: pi[8] + 3.959077642697442 D[8] - mu_D[8] = 1410
 Cost_Demand[9]: pi[9] + 3.369404411091681 D[9] - mu_D[9] = 1452
 Cost_Demand[11]: pi[11] + 3.552611510521287 D[11] - mu_D[11] = 1461
 Cost_Demand[15]: pi[15] + 3.593924201613168 D[15] - mu_D[15] = 1312
 Cost_Demand[16]: pi[16] + 3.84829120827506 D[16] - mu_D[16] = 1412
 Cost_Demand[17]: pi[17] + 3.145473538186532 D[17] - mu_D[17] = 1390
 Cost_Demand[19]: pi[19] + 3.406510336748127 D[19] - mu_D[19] = 1357
 Cost_Demand[20]: pi[20] + 3.909958961662297 D[20] - mu_D[20] = 1390
 Cost_Supply[5]: - pi[5] + 0.4302987319478333 S[5] - mu_S[5]
   = -1.028365365113521
 Cost_Supply[6]: - pi[6] + 0.9660620807840702 S[6] - mu_S[6]
   = -1.71921977282674
 Cost_Supply[7]: - pi[7] + 0.562231842228457 S[7] - mu_S[7]
   = -1.015991729523572
 Cost_Supply[8]: - pi[8] + 0.2588645931709322 S[8] - mu_S[8]
   = -1.757951002356428
 Cost_Supply[9]: - pi[9] + 0.241675714094345 S[9] - mu_S[9]
   = -1.512758723262078
 Cost_Supply[11]: - pi[11] + 0.8881183206591798 S[11] - mu_S[11]
   = -1.929104220797006
 Cost_Supply[14]: - pi[14] + 0.2258694284173244 S[14] - mu_S[14]
   = -1.066082496724075
 Cost_Supply[17]: - pi[17] + 0.1245547058352835 S[17] - mu_S[17]
   = -1.841317279612383
 Cost_Supply[18]: - pi[18] + 0.2883307570075776 S[18] - mu_S[18]
   = -1.066690008767101
 Cost_Supply[20]: - pi[20] + 0.5861230648127328 S[20] - mu_S[20]
   = -1.344309978804125
Bounds
Binaries
 x[1] x[2] x[3] x[4] x[5] x[7] x[8] x[10] x[12] x[13] x[14] x[15] x[16]
 x[17] x[19]
SOS
 s0:  S1 :: f[2,1]:1 mu_f[2,1]:2
 s1:  S1 :: f[3,2]:1 mu_f[3,2]:2
 s2:  S1 :: f[4,2]:1 mu_f[4,2]:2
 s3:  S1 :: f[5,3]:1 mu_f[5,3]:2
 s4:  S1 :: f[6,2]:1 mu_f[6,2]:2
 s5:  S1 :: f[7,2]:1 mu_f[7,2]:2
 s6:  S1 :: f[8,1]:1 mu_f[8,1]:2
 s7:  S1 :: f[9,1]:1 mu_f[9,1]:2
 s8:  S1 :: f[10,1]:1 mu_f[10,1]:2
 s9:  S1 :: f[11,2]:1 mu_f[11,2]:2
 s10:  S1 :: f[12,9]:1 mu_f[12,9]:2
 s11:  S1 :: f[13,8]:1 mu_f[13,8]:2
 s12:  S1 :: f[14,12]:1 mu_f[14,12]:2
 s13:  S1 :: f[15,8]:1 mu_f[15,8]:2
 s14:  S1 :: f[16,10]:1 mu_f[16,10]:2
 s15:  S1 :: f[17,16]:1 mu_f[17,16]:2
 s16:  S1 :: f[18,13]:1 mu_f[18,13]:2
 s17:  S1 :: f[19,12]:1 mu_f[19,12]:2
 s18:  S1 :: f[20,11]:1 mu_f[20,11]:2
 s19:  S1 :: f[3,8]:1 mu_f[3,8]:2
 s20:  S1 :: f[10,6]:1 mu_f[10,6]:2
 s21:  S1 :: f[14,1]:1 mu_f[14,1]:2
 s22:  S1 :: f[20,9]:1 mu_f[20,9]:2
 s23:  S1 :: f[1,10]:1 mu_f[1,10]:2
 s24:  S1 :: f[13,10]:1 mu_f[13,10]:2
 s25:  S1 :: D[4]:1 mu_D[4]:2
 s26:  S1 :: D[6]:1 mu_D[6]:2
 s27:  S1 :: D[8]:1 mu_D[8]:2
 s28:  S1 :: D[9]:1 mu_D[9]:2
 s29:  S1 :: D[11]:1 mu_D[11]:2
 s30:  S1 :: D[15]:1 mu_D[15]:2
 s31:  S1 :: D[16]:1 mu_D[16]:2
 s32:  S1 :: D[17]:1 mu_D[17]:2
 s33:  S1 :: D[19]:1 mu_D[19]:2
 s34:  S1 :: D[20]:1 mu_D[20]:2
 s35:  S1 :: S[5]:1 mu_S[5]:2
 s36:  S1 :: S[6]:1 mu_S[6]:2
 s37:  S1 :: S[7]:1 mu_S[7]:2
 s38:  S1 :: S[8]:1 mu_S[8]:2
 s39:  S1 :: S[9]:1 mu_S[9]:2
 s40:  S1 :: S[11]:1 mu_S[11]:2
 s41:  S1 :: S[14]:1 mu_S[14]:2
 s42:  S1 :: S[17]:1 mu_S[17]:2
 s43:  S1 :: S[18]:1 mu_S[18]:2
 s44:  S1 :: S[20]:1 mu_S[20]:2
End
